c graph colorability of graph:
c .
c
c Generated with `cnfgen`
c (C) 2012-2019 Massimo Lauria <massimo.lauria@uniroma1.it>
c https://massimolauria.net/cnfgen
c
c COMMAND LINE: cnfgen --seed 1 -o ./kcolor/kcolor.grid8.s1.k3.cnf kcolor --grid 8 8 --savegraph ./kcolor/kcolor.grid8.s1.graph --graphformat dot 3
c
p cnf 192 592
1 2 3 0
-1 -2 0
-1 -3 0
-2 -3 0
4 5 6 0
-4 -5 0
-4 -6 0
-5 -6 0
7 8 9 0
-7 -8 0
-7 -9 0
-8 -9 0
10 11 12 0
-10 -11 0
-10 -12 0
-11 -12 0
13 14 15 0
-13 -14 0
-13 -15 0
-14 -15 0
16 17 18 0
-16 -17 0
-16 -18 0
-17 -18 0
19 20 21 0
-19 -20 0
-19 -21 0
-20 -21 0
22 23 24 0
-22 -23 0
-22 -24 0
-23 -24 0
25 26 27 0
-25 -26 0
-25 -27 0
-26 -27 0
28 29 30 0
-28 -29 0
-28 -30 0
-29 -30 0
31 32 33 0
-31 -32 0
-31 -33 0
-32 -33 0
34 35 36 0
-34 -35 0
-34 -36 0
-35 -36 0
37 38 39 0
-37 -38 0
-37 -39 0
-38 -39 0
40 41 42 0
-40 -41 0
-40 -42 0
-41 -42 0
43 44 45 0
-43 -44 0
-43 -45 0
-44 -45 0
46 47 48 0
-46 -47 0
-46 -48 0
-47 -48 0
49 50 51 0
-49 -50 0
-49 -51 0
-50 -51 0
52 53 54 0
-52 -53 0
-52 -54 0
-53 -54 0
55 56 57 0
-55 -56 0
-55 -57 0
-56 -57 0
58 59 60 0
-58 -59 0
-58 -60 0
-59 -60 0
61 62 63 0
-61 -62 0
-61 -63 0
-62 -63 0
64 65 66 0
-64 -65 0
-64 -66 0
-65 -66 0
67 68 69 0
-67 -68 0
-67 -69 0
-68 -69 0
70 71 72 0
-70 -71 0
-70 -72 0
-71 -72 0
73 74 75 0
-73 -74 0
-73 -75 0
-74 -75 0
76 77 78 0
-76 -77 0
-76 -78 0
-77 -78 0
79 80 81 0
-79 -80 0
-79 -81 0
-80 -81 0
82 83 84 0
-82 -83 0
-82 -84 0
-83 -84 0
85 86 87 0
-85 -86 0
-85 -87 0
-86 -87 0
88 89 90 0
-88 -89 0
-88 -90 0
-89 -90 0
91 92 93 0
-91 -92 0
-91 -93 0
-92 -93 0
94 95 96 0
-94 -95 0
-94 -96 0
-95 -96 0
97 98 99 0
-97 -98 0
-97 -99 0
-98 -99 0
100 101 102 0
-100 -101 0
-100 -102 0
-101 -102 0
103 104 105 0
-103 -104 0
-103 -105 0
-104 -105 0
106 107 108 0
-106 -107 0
-106 -108 0
-107 -108 0
109 110 111 0
-109 -110 0
-109 -111 0
-110 -111 0
112 113 114 0
-112 -113 0
-112 -114 0
-113 -114 0
115 116 117 0
-115 -116 0
-115 -117 0
-116 -117 0
118 119 120 0
-118 -119 0
-118 -120 0
-119 -120 0
121 122 123 0
-121 -122 0
-121 -123 0
-122 -123 0
124 125 126 0
-124 -125 0
-124 -126 0
-125 -126 0
127 128 129 0
-127 -128 0
-127 -129 0
-128 -129 0
130 131 132 0
-130 -131 0
-130 -132 0
-131 -132 0
133 134 135 0
-133 -134 0
-133 -135 0
-134 -135 0
136 137 138 0
-136 -137 0
-136 -138 0
-137 -138 0
139 140 141 0
-139 -140 0
-139 -141 0
-140 -141 0
142 143 144 0
-142 -143 0
-142 -144 0
-143 -144 0
145 146 147 0
-145 -146 0
-145 -147 0
-146 -147 0
148 149 150 0
-148 -149 0
-148 -150 0
-149 -150 0
151 152 153 0
-151 -152 0
-151 -153 0
-152 -153 0
154 155 156 0
-154 -155 0
-154 -156 0
-155 -156 0
157 158 159 0
-157 -158 0
-157 -159 0
-158 -159 0
160 161 162 0
-160 -161 0
-160 -162 0
-161 -162 0
163 164 165 0
-163 -164 0
-163 -165 0
-164 -165 0
166 167 168 0
-166 -167 0
-166 -168 0
-167 -168 0
169 170 171 0
-169 -170 0
-169 -171 0
-170 -171 0
172 173 174 0
-172 -173 0
-172 -174 0
-173 -174 0
175 176 177 0
-175 -176 0
-175 -177 0
-176 -177 0
178 179 180 0
-178 -179 0
-178 -180 0
-179 -180 0
181 182 183 0
-181 -182 0
-181 -183 0
-182 -183 0
184 185 186 0
-184 -185 0
-184 -186 0
-185 -186 0
187 188 189 0
-187 -188 0
-187 -189 0
-188 -189 0
190 191 192 0
-190 -191 0
-190 -192 0
-191 -192 0
-1 -4 0
-2 -5 0
-3 -6 0
-1 -25 0
-2 -26 0
-3 -27 0
-4 -7 0
-5 -8 0
-6 -9 0
-4 -28 0
-5 -29 0
-6 -30 0
-7 -10 0
-8 -11 0
-9 -12 0
-7 -31 0
-8 -32 0
-9 -33 0
-10 -13 0
-11 -14 0
-12 -15 0
-10 -34 0
-11 -35 0
-12 -36 0
-13 -16 0
-14 -17 0
-15 -18 0
-13 -37 0
-14 -38 0
-15 -39 0
-16 -19 0
-17 -20 0
-18 -21 0
-16 -40 0
-17 -41 0
-18 -42 0
-19 -22 0
-20 -23 0
-21 -24 0
-19 -43 0
-20 -44 0
-21 -45 0
-22 -46 0
-23 -47 0
-24 -48 0
-25 -28 0
-26 -29 0
-27 -30 0
-25 -49 0
-26 -50 0
-27 -51 0
-28 -31 0
-29 -32 0
-30 -33 0
-28 -52 0
-29 -53 0
-30 -54 0
-31 -34 0
-32 -35 0
-33 -36 0
-31 -55 0
-32 -56 0
-33 -57 0
-34 -37 0
-35 -38 0
-36 -39 0
-34 -58 0
-35 -59 0
-36 -60 0
-37 -40 0
-38 -41 0
-39 -42 0
-37 -61 0
-38 -62 0
-39 -63 0
-40 -43 0
-41 -44 0
-42 -45 0
-40 -64 0
-41 -65 0
-42 -66 0
-43 -46 0
-44 -47 0
-45 -48 0
-43 -67 0
-44 -68 0
-45 -69 0
-46 -70 0
-47 -71 0
-48 -72 0
-49 -52 0
-50 -53 0
-51 -54 0
-49 -73 0
-50 -74 0
-51 -75 0
-52 -55 0
-53 -56 0
-54 -57 0
-52 -76 0
-53 -77 0
-54 -78 0
-55 -58 0
-56 -59 0
-57 -60 0
-55 -79 0
-56 -80 0
-57 -81 0
-58 -61 0
-59 -62 0
-60 -63 0
-58 -82 0
-59 -83 0
-60 -84 0
-61 -64 0
-62 -65 0
-63 -66 0
-61 -85 0
-62 -86 0
-63 -87 0
-64 -67 0
-65 -68 0
-66 -69 0
-64 -88 0
-65 -89 0
-66 -90 0
-67 -70 0
-68 -71 0
-69 -72 0
-67 -91 0
-68 -92 0
-69 -93 0
-70 -94 0
-71 -95 0
-72 -96 0
-73 -76 0
-74 -77 0
-75 -78 0
-73 -97 0
-74 -98 0
-75 -99 0
-76 -79 0
-77 -80 0
-78 -81 0
-76 -100 0
-77 -101 0
-78 -102 0
-79 -82 0
-80 -83 0
-81 -84 0
-79 -103 0
-80 -104 0
-81 -105 0
-82 -85 0
-83 -86 0
-84 -87 0
-82 -106 0
-83 -107 0
-84 -108 0
-85 -88 0
-86 -89 0
-87 -90 0
-85 -109 0
-86 -110 0
-87 -111 0
-88 -91 0
-89 -92 0
-90 -93 0
-88 -112 0
-89 -113 0
-90 -114 0
-91 -94 0
-92 -95 0
-93 -96 0
-91 -115 0
-92 -116 0
-93 -117 0
-94 -118 0
-95 -119 0
-96 -120 0
-97 -100 0
-98 -101 0
-99 -102 0
-97 -121 0
-98 -122 0
-99 -123 0
-100 -103 0
-101 -104 0
-102 -105 0
-100 -124 0
-101 -125 0
-102 -126 0
-103 -106 0
-104 -107 0
-105 -108 0
-103 -127 0
-104 -128 0
-105 -129 0
-106 -109 0
-107 -110 0
-108 -111 0
-106 -130 0
-107 -131 0
-108 -132 0
-109 -112 0
-110 -113 0
-111 -114 0
-109 -133 0
-110 -134 0
-111 -135 0
-112 -115 0
-113 -116 0
-114 -117 0
-112 -136 0
-113 -137 0
-114 -138 0
-115 -118 0
-116 -119 0
-117 -120 0
-115 -139 0
-116 -140 0
-117 -141 0
-118 -142 0
-119 -143 0
-120 -144 0
-121 -124 0
-122 -125 0
-123 -126 0
-121 -145 0
-122 -146 0
-123 -147 0
-124 -127 0
-125 -128 0
-126 -129 0
-124 -148 0
-125 -149 0
-126 -150 0
-127 -130 0
-128 -131 0
-129 -132 0
-127 -151 0
-128 -152 0
-129 -153 0
-130 -133 0
-131 -134 0
-132 -135 0
-130 -154 0
-131 -155 0
-132 -156 0
-133 -136 0
-134 -137 0
-135 -138 0
-133 -157 0
-134 -158 0
-135 -159 0
-136 -139 0
-137 -140 0
-138 -141 0
-136 -160 0
-137 -161 0
-138 -162 0
-139 -142 0
-140 -143 0
-141 -144 0
-139 -163 0
-140 -164 0
-141 -165 0
-142 -166 0
-143 -167 0
-144 -168 0
-145 -148 0
-146 -149 0
-147 -150 0
-145 -169 0
-146 -170 0
-147 -171 0
-148 -151 0
-149 -152 0
-150 -153 0
-148 -172 0
-149 -173 0
-150 -174 0
-151 -154 0
-152 -155 0
-153 -156 0
-151 -175 0
-152 -176 0
-153 -177 0
-154 -157 0
-155 -158 0
-156 -159 0
-154 -178 0
-155 -179 0
-156 -180 0
-157 -160 0
-158 -161 0
-159 -162 0
-157 -181 0
-158 -182 0
-159 -183 0
-160 -163 0
-161 -164 0
-162 -165 0
-160 -184 0
-161 -185 0
-162 -186 0
-163 -166 0
-164 -167 0
-165 -168 0
-163 -187 0
-164 -188 0
-165 -189 0
-166 -190 0
-167 -191 0
-168 -192 0
-169 -172 0
-170 -173 0
-171 -174 0
-172 -175 0
-173 -176 0
-174 -177 0
-175 -178 0
-176 -179 0
-177 -180 0
-178 -181 0
-179 -182 0
-180 -183 0
-181 -184 0
-182 -185 0
-183 -186 0
-184 -187 0
-185 -188 0
-186 -189 0
-187 -190 0
-188 -191 0
-189 -192 0
